
<<< setup

Version identifier: 22.1.1.0 | 2022-11-27 | 9160aff4d
Tried aggregator 1 time.
LP Presolve eliminated 1667 rows and 1629 columns.
Reduced LP has 12 rows, 26 columns, and 44 nonzeros.
Presolve time = 0.00 sec. (2.46 ticks)

Iteration log . . .
Iteration:     1   Dual infeasibility =            87.164900
Iteration:    14   Dual objective     =           315.386569
main returns 0

<<< main


<<< done

